NAME : berlin52-R-5-2-c.9935.tour
COMMENT : Length = 9935
COMMENT : Found by LKH-3 [Keld Helsgaun] Tue Jul 30 13:14:23 2024
TYPE : TOUR
DIMENSION : 52
TOUR_SECTION
1
49
34
46
48
38
40
39
10
19
18
3
17
7
2
42
21
23
30
29
47
26
27
28
12
11
13
14
52
51
33
43
9
8
41
45
32
36
35
37
24
5
15
6
4
25
44
16
50
20
31
22
-1
EOF
